gil262_1
0 236 175 69 226 94 137 126 14 48 232 229 162 182 21 2 77 70 165 25 143 50 255 71 114 27 237 22 54 125 187 36 29 52 213 79 109 144 15 124 116 112 198 3 127 120 157 154 214 151 256 167 166 46 107 192 199 208 60 1 57 98 168 40 161 172 75 1 37 204 228 251 131 230 224 110 104 4 170 72 257 239 121 49 234 97 190 4 252 119 129 32 181 183 238 90 78 115 68 5 180 209 235 5 169 74 81 261 210 149 85 31 91 12 61 233 141 102 203 30 219 66 218 133 201 38 195 2 260 76 242 202 135 28 51 174 148 5 5 18 227 152 258 0